n_machines = 2;
n_resources = 3;
n_jobs = 30;
horizon = 17659;
LB = 8829;
n_jobs_per_resource = [10, 10, 10];
duration = [796, 402, 965, 588, 419, 215, 297, 942, 840, 805, 468, 700, 772, 574, 884, 458, 73, 580, 810, 84, 732, 847, 704, 372, 155, 504, 894, 569, 705, 505]